linear programming/gurobi/NLDS/overdraft/iter1_main.sol
# Objective value = -1175.015
q_1 0
W_0 5
W_1 0
theta_2 -1200
